c *********************************
c * Circuit generated by BenCGen
c *
c * Parity_286
c *
c * Ports with 1 gate(s): 1
c * Ports with 2 gate(s): 286
c * Total gates: 287
c *********************************
p cnf 573 1145
1 289 0
-1 -289 0
1 -288 0
289 -288 0
-1 -289 288 0
1 2 -290 0
-1 2 290 0
1 -2 290 0
-1 -2 -290 0
3 4 -291 0
-3 4 291 0
3 -4 291 0
-3 -4 -291 0
5 6 -292 0
-5 6 292 0
5 -6 292 0
-5 -6 -292 0
7 8 -293 0
-7 8 293 0
7 -8 293 0
-7 -8 -293 0
9 10 -294 0
-9 10 294 0
9 -10 294 0
-9 -10 -294 0
11 12 -295 0
-11 12 295 0
11 -12 295 0
-11 -12 -295 0
13 14 -296 0
-13 14 296 0
13 -14 296 0
-13 -14 -296 0
15 16 -297 0
-15 16 297 0
15 -16 297 0
-15 -16 -297 0
17 18 -298 0
-17 18 298 0
17 -18 298 0
-17 -18 -298 0
19 20 -299 0
-19 20 299 0
19 -20 299 0
-19 -20 -299 0
21 22 -300 0
-21 22 300 0
21 -22 300 0
-21 -22 -300 0
23 24 -301 0
-23 24 301 0
23 -24 301 0
-23 -24 -301 0
25 26 -302 0
-25 26 302 0
25 -26 302 0
-25 -26 -302 0
27 28 -303 0
-27 28 303 0
27 -28 303 0
-27 -28 -303 0
29 30 -304 0
-29 30 304 0
29 -30 304 0
-29 -30 -304 0
31 32 -305 0
-31 32 305 0
31 -32 305 0
-31 -32 -305 0
33 34 -306 0
-33 34 306 0
33 -34 306 0
-33 -34 -306 0
35 36 -307 0
-35 36 307 0
35 -36 307 0
-35 -36 -307 0
37 38 -308 0
-37 38 308 0
37 -38 308 0
-37 -38 -308 0
39 40 -309 0
-39 40 309 0
39 -40 309 0
-39 -40 -309 0
41 42 -310 0
-41 42 310 0
41 -42 310 0
-41 -42 -310 0
43 44 -311 0
-43 44 311 0
43 -44 311 0
-43 -44 -311 0
45 46 -312 0
-45 46 312 0
45 -46 312 0
-45 -46 -312 0
47 48 -313 0
-47 48 313 0
47 -48 313 0
-47 -48 -313 0
49 50 -314 0
-49 50 314 0
49 -50 314 0
-49 -50 -314 0
51 52 -315 0
-51 52 315 0
51 -52 315 0
-51 -52 -315 0
53 54 -316 0
-53 54 316 0
53 -54 316 0
-53 -54 -316 0
55 56 -317 0
-55 56 317 0
55 -56 317 0
-55 -56 -317 0
57 58 -318 0
-57 58 318 0
57 -58 318 0
-57 -58 -318 0
59 60 -319 0
-59 60 319 0
59 -60 319 0
-59 -60 -319 0
61 62 -320 0
-61 62 320 0
61 -62 320 0
-61 -62 -320 0
63 64 -321 0
-63 64 321 0
63 -64 321 0
-63 -64 -321 0
65 66 -322 0
-65 66 322 0
65 -66 322 0
-65 -66 -322 0
67 68 -323 0
-67 68 323 0
67 -68 323 0
-67 -68 -323 0
69 70 -324 0
-69 70 324 0
69 -70 324 0
-69 -70 -324 0
71 72 -325 0
-71 72 325 0
71 -72 325 0
-71 -72 -325 0
73 74 -326 0
-73 74 326 0
73 -74 326 0
-73 -74 -326 0
75 76 -327 0
-75 76 327 0
75 -76 327 0
-75 -76 -327 0
77 78 -328 0
-77 78 328 0
77 -78 328 0
-77 -78 -328 0
79 80 -329 0
-79 80 329 0
79 -80 329 0
-79 -80 -329 0
81 82 -330 0
-81 82 330 0
81 -82 330 0
-81 -82 -330 0
83 84 -331 0
-83 84 331 0
83 -84 331 0
-83 -84 -331 0
85 86 -332 0
-85 86 332 0
85 -86 332 0
-85 -86 -332 0
87 88 -333 0
-87 88 333 0
87 -88 333 0
-87 -88 -333 0
89 90 -334 0
-89 90 334 0
89 -90 334 0
-89 -90 -334 0
91 92 -335 0
-91 92 335 0
91 -92 335 0
-91 -92 -335 0
93 94 -336 0
-93 94 336 0
93 -94 336 0
-93 -94 -336 0
95 96 -337 0
-95 96 337 0
95 -96 337 0
-95 -96 -337 0
97 98 -338 0
-97 98 338 0
97 -98 338 0
-97 -98 -338 0
99 100 -339 0
-99 100 339 0
99 -100 339 0
-99 -100 -339 0
101 102 -340 0
-101 102 340 0
101 -102 340 0
-101 -102 -340 0
103 104 -341 0
-103 104 341 0
103 -104 341 0
-103 -104 -341 0
105 106 -342 0
-105 106 342 0
105 -106 342 0
-105 -106 -342 0
107 108 -343 0
-107 108 343 0
107 -108 343 0
-107 -108 -343 0
109 110 -344 0
-109 110 344 0
109 -110 344 0
-109 -110 -344 0
111 112 -345 0
-111 112 345 0
111 -112 345 0
-111 -112 -345 0
113 114 -346 0
-113 114 346 0
113 -114 346 0
-113 -114 -346 0
115 116 -347 0
-115 116 347 0
115 -116 347 0
-115 -116 -347 0
117 118 -348 0
-117 118 348 0
117 -118 348 0
-117 -118 -348 0
119 120 -349 0
-119 120 349 0
119 -120 349 0
-119 -120 -349 0
121 122 -350 0
-121 122 350 0
121 -122 350 0
-121 -122 -350 0
123 124 -351 0
-123 124 351 0
123 -124 351 0
-123 -124 -351 0
125 126 -352 0
-125 126 352 0
125 -126 352 0
-125 -126 -352 0
127 128 -353 0
-127 128 353 0
127 -128 353 0
-127 -128 -353 0
129 130 -354 0
-129 130 354 0
129 -130 354 0
-129 -130 -354 0
131 132 -355 0
-131 132 355 0
131 -132 355 0
-131 -132 -355 0
133 134 -356 0
-133 134 356 0
133 -134 356 0
-133 -134 -356 0
135 136 -357 0
-135 136 357 0
135 -136 357 0
-135 -136 -357 0
137 138 -358 0
-137 138 358 0
137 -138 358 0
-137 -138 -358 0
139 140 -359 0
-139 140 359 0
139 -140 359 0
-139 -140 -359 0
141 142 -360 0
-141 142 360 0
141 -142 360 0
-141 -142 -360 0
143 144 -361 0
-143 144 361 0
143 -144 361 0
-143 -144 -361 0
145 146 -362 0
-145 146 362 0
145 -146 362 0
-145 -146 -362 0
147 148 -363 0
-147 148 363 0
147 -148 363 0
-147 -148 -363 0
149 150 -364 0
-149 150 364 0
149 -150 364 0
-149 -150 -364 0
151 152 -365 0
-151 152 365 0
151 -152 365 0
-151 -152 -365 0
153 154 -366 0
-153 154 366 0
153 -154 366 0
-153 -154 -366 0
155 156 -367 0
-155 156 367 0
155 -156 367 0
-155 -156 -367 0
157 158 -368 0
-157 158 368 0
157 -158 368 0
-157 -158 -368 0
159 160 -369 0
-159 160 369 0
159 -160 369 0
-159 -160 -369 0
161 162 -370 0
-161 162 370 0
161 -162 370 0
-161 -162 -370 0
163 164 -371 0
-163 164 371 0
163 -164 371 0
-163 -164 -371 0
165 166 -372 0
-165 166 372 0
165 -166 372 0
-165 -166 -372 0
167 168 -373 0
-167 168 373 0
167 -168 373 0
-167 -168 -373 0
169 170 -374 0
-169 170 374 0
169 -170 374 0
-169 -170 -374 0
171 172 -375 0
-171 172 375 0
171 -172 375 0
-171 -172 -375 0
173 174 -376 0
-173 174 376 0
173 -174 376 0
-173 -174 -376 0
175 176 -377 0
-175 176 377 0
175 -176 377 0
-175 -176 -377 0
177 178 -378 0
-177 178 378 0
177 -178 378 0
-177 -178 -378 0
179 180 -379 0
-179 180 379 0
179 -180 379 0
-179 -180 -379 0
181 182 -380 0
-181 182 380 0
181 -182 380 0
-181 -182 -380 0
183 184 -381 0
-183 184 381 0
183 -184 381 0
-183 -184 -381 0
185 186 -382 0
-185 186 382 0
185 -186 382 0
-185 -186 -382 0
187 188 -383 0
-187 188 383 0
187 -188 383 0
-187 -188 -383 0
189 190 -384 0
-189 190 384 0
189 -190 384 0
-189 -190 -384 0
191 192 -385 0
-191 192 385 0
191 -192 385 0
-191 -192 -385 0
193 194 -386 0
-193 194 386 0
193 -194 386 0
-193 -194 -386 0
195 196 -387 0
-195 196 387 0
195 -196 387 0
-195 -196 -387 0
197 198 -388 0
-197 198 388 0
197 -198 388 0
-197 -198 -388 0
199 200 -389 0
-199 200 389 0
199 -200 389 0
-199 -200 -389 0
201 202 -390 0
-201 202 390 0
201 -202 390 0
-201 -202 -390 0
203 204 -391 0
-203 204 391 0
203 -204 391 0
-203 -204 -391 0
205 206 -392 0
-205 206 392 0
205 -206 392 0
-205 -206 -392 0
207 208 -393 0
-207 208 393 0
207 -208 393 0
-207 -208 -393 0
209 210 -394 0
-209 210 394 0
209 -210 394 0
-209 -210 -394 0
211 212 -395 0
-211 212 395 0
211 -212 395 0
-211 -212 -395 0
213 214 -396 0
-213 214 396 0
213 -214 396 0
-213 -214 -396 0
215 216 -397 0
-215 216 397 0
215 -216 397 0
-215 -216 -397 0
217 218 -398 0
-217 218 398 0
217 -218 398 0
-217 -218 -398 0
219 220 -399 0
-219 220 399 0
219 -220 399 0
-219 -220 -399 0
221 222 -400 0
-221 222 400 0
221 -222 400 0
-221 -222 -400 0
223 224 -401 0
-223 224 401 0
223 -224 401 0
-223 -224 -401 0
225 226 -402 0
-225 226 402 0
225 -226 402 0
-225 -226 -402 0
227 228 -403 0
-227 228 403 0
227 -228 403 0
-227 -228 -403 0
229 230 -404 0
-229 230 404 0
229 -230 404 0
-229 -230 -404 0
231 232 -405 0
-231 232 405 0
231 -232 405 0
-231 -232 -405 0
233 234 -406 0
-233 234 406 0
233 -234 406 0
-233 -234 -406 0
235 236 -407 0
-235 236 407 0
235 -236 407 0
-235 -236 -407 0
237 238 -408 0
-237 238 408 0
237 -238 408 0
-237 -238 -408 0
239 240 -409 0
-239 240 409 0
239 -240 409 0
-239 -240 -409 0
241 242 -410 0
-241 242 410 0
241 -242 410 0
-241 -242 -410 0
243 244 -411 0
-243 244 411 0
243 -244 411 0
-243 -244 -411 0
245 246 -412 0
-245 246 412 0
245 -246 412 0
-245 -246 -412 0
247 248 -413 0
-247 248 413 0
247 -248 413 0
-247 -248 -413 0
249 250 -414 0
-249 250 414 0
249 -250 414 0
-249 -250 -414 0
251 252 -415 0
-251 252 415 0
251 -252 415 0
-251 -252 -415 0
253 254 -416 0
-253 254 416 0
253 -254 416 0
-253 -254 -416 0
255 256 -417 0
-255 256 417 0
255 -256 417 0
-255 -256 -417 0
257 258 -418 0
-257 258 418 0
257 -258 418 0
-257 -258 -418 0
259 260 -419 0
-259 260 419 0
259 -260 419 0
-259 -260 -419 0
261 262 -420 0
-261 262 420 0
261 -262 420 0
-261 -262 -420 0
263 264 -421 0
-263 264 421 0
263 -264 421 0
-263 -264 -421 0
265 266 -422 0
-265 266 422 0
265 -266 422 0
-265 -266 -422 0
267 268 -423 0
-267 268 423 0
267 -268 423 0
-267 -268 -423 0
269 270 -424 0
-269 270 424 0
269 -270 424 0
-269 -270 -424 0
271 272 -425 0
-271 272 425 0
271 -272 425 0
-271 -272 -425 0
273 274 -426 0
-273 274 426 0
273 -274 426 0
-273 -274 -426 0
275 276 -427 0
-275 276 427 0
275 -276 427 0
-275 -276 -427 0
277 278 -428 0
-277 278 428 0
277 -278 428 0
-277 -278 -428 0
279 280 -429 0
-279 280 429 0
279 -280 429 0
-279 -280 -429 0
281 282 -430 0
-281 282 430 0
281 -282 430 0
-281 -282 -430 0
283 284 -431 0
-283 284 431 0
283 -284 431 0
-283 -284 -431 0
285 286 -432 0
-285 286 432 0
285 -286 432 0
-285 -286 -432 0
290 291 -433 0
-290 291 433 0
290 -291 433 0
-290 -291 -433 0
292 293 -434 0
-292 293 434 0
292 -293 434 0
-292 -293 -434 0
294 295 -435 0
-294 295 435 0
294 -295 435 0
-294 -295 -435 0
296 297 -436 0
-296 297 436 0
296 -297 436 0
-296 -297 -436 0
298 299 -437 0
-298 299 437 0
298 -299 437 0
-298 -299 -437 0
300 301 -438 0
-300 301 438 0
300 -301 438 0
-300 -301 -438 0
302 303 -439 0
-302 303 439 0
302 -303 439 0
-302 -303 -439 0
304 305 -440 0
-304 305 440 0
304 -305 440 0
-304 -305 -440 0
306 307 -441 0
-306 307 441 0
306 -307 441 0
-306 -307 -441 0
308 309 -442 0
-308 309 442 0
308 -309 442 0
-308 -309 -442 0
310 311 -443 0
-310 311 443 0
310 -311 443 0
-310 -311 -443 0
312 313 -444 0
-312 313 444 0
312 -313 444 0
-312 -313 -444 0
314 315 -445 0
-314 315 445 0
314 -315 445 0
-314 -315 -445 0
316 317 -446 0
-316 317 446 0
316 -317 446 0
-316 -317 -446 0
318 319 -447 0
-318 319 447 0
318 -319 447 0
-318 -319 -447 0
320 321 -448 0
-320 321 448 0
320 -321 448 0
-320 -321 -448 0
322 323 -449 0
-322 323 449 0
322 -323 449 0
-322 -323 -449 0
324 325 -450 0
-324 325 450 0
324 -325 450 0
-324 -325 -450 0
326 327 -451 0
-326 327 451 0
326 -327 451 0
-326 -327 -451 0
328 329 -452 0
-328 329 452 0
328 -329 452 0
-328 -329 -452 0
330 331 -453 0
-330 331 453 0
330 -331 453 0
-330 -331 -453 0
332 333 -454 0
-332 333 454 0
332 -333 454 0
-332 -333 -454 0
334 335 -455 0
-334 335 455 0
334 -335 455 0
-334 -335 -455 0
336 337 -456 0
-336 337 456 0
336 -337 456 0
-336 -337 -456 0
338 339 -457 0
-338 339 457 0
338 -339 457 0
-338 -339 -457 0
340 341 -458 0
-340 341 458 0
340 -341 458 0
-340 -341 -458 0
342 343 -459 0
-342 343 459 0
342 -343 459 0
-342 -343 -459 0
344 345 -460 0
-344 345 460 0
344 -345 460 0
-344 -345 -460 0
346 347 -461 0
-346 347 461 0
346 -347 461 0
-346 -347 -461 0
348 349 -462 0
-348 349 462 0
348 -349 462 0
-348 -349 -462 0
350 351 -463 0
-350 351 463 0
350 -351 463 0
-350 -351 -463 0
352 353 -464 0
-352 353 464 0
352 -353 464 0
-352 -353 -464 0
354 355 -465 0
-354 355 465 0
354 -355 465 0
-354 -355 -465 0
356 357 -466 0
-356 357 466 0
356 -357 466 0
-356 -357 -466 0
358 359 -467 0
-358 359 467 0
358 -359 467 0
-358 -359 -467 0
360 361 -468 0
-360 361 468 0
360 -361 468 0
-360 -361 -468 0
362 363 -469 0
-362 363 469 0
362 -363 469 0
-362 -363 -469 0
364 365 -470 0
-364 365 470 0
364 -365 470 0
-364 -365 -470 0
366 367 -471 0
-366 367 471 0
366 -367 471 0
-366 -367 -471 0
368 369 -472 0
-368 369 472 0
368 -369 472 0
-368 -369 -472 0
370 371 -473 0
-370 371 473 0
370 -371 473 0
-370 -371 -473 0
372 373 -474 0
-372 373 474 0
372 -373 474 0
-372 -373 -474 0
374 375 -475 0
-374 375 475 0
374 -375 475 0
-374 -375 -475 0
376 377 -476 0
-376 377 476 0
376 -377 476 0
-376 -377 -476 0
378 379 -477 0
-378 379 477 0
378 -379 477 0
-378 -379 -477 0
380 381 -478 0
-380 381 478 0
380 -381 478 0
-380 -381 -478 0
382 383 -479 0
-382 383 479 0
382 -383 479 0
-382 -383 -479 0
384 385 -480 0
-384 385 480 0
384 -385 480 0
-384 -385 -480 0
386 387 -481 0
-386 387 481 0
386 -387 481 0
-386 -387 -481 0
388 389 -482 0
-388 389 482 0
388 -389 482 0
-388 -389 -482 0
390 391 -483 0
-390 391 483 0
390 -391 483 0
-390 -391 -483 0
392 393 -484 0
-392 393 484 0
392 -393 484 0
-392 -393 -484 0
394 395 -485 0
-394 395 485 0
394 -395 485 0
-394 -395 -485 0
396 397 -486 0
-396 397 486 0
396 -397 486 0
-396 -397 -486 0
398 399 -487 0
-398 399 487 0
398 -399 487 0
-398 -399 -487 0
400 401 -488 0
-400 401 488 0
400 -401 488 0
-400 -401 -488 0
402 403 -489 0
-402 403 489 0
402 -403 489 0
-402 -403 -489 0
404 405 -490 0
-404 405 490 0
404 -405 490 0
-404 -405 -490 0
406 407 -491 0
-406 407 491 0
406 -407 491 0
-406 -407 -491 0
408 409 -492 0
-408 409 492 0
408 -409 492 0
-408 -409 -492 0
410 411 -493 0
-410 411 493 0
410 -411 493 0
-410 -411 -493 0
412 413 -494 0
-412 413 494 0
412 -413 494 0
-412 -413 -494 0
414 415 -495 0
-414 415 495 0
414 -415 495 0
-414 -415 -495 0
416 417 -496 0
-416 417 496 0
416 -417 496 0
-416 -417 -496 0
418 419 -497 0
-418 419 497 0
418 -419 497 0
-418 -419 -497 0
420 421 -498 0
-420 421 498 0
420 -421 498 0
-420 -421 -498 0
422 423 -499 0
-422 423 499 0
422 -423 499 0
-422 -423 -499 0
424 425 -500 0
-424 425 500 0
424 -425 500 0
-424 -425 -500 0
426 427 -501 0
-426 427 501 0
426 -427 501 0
-426 -427 -501 0
428 429 -502 0
-428 429 502 0
428 -429 502 0
-428 -429 -502 0
430 431 -503 0
-430 431 503 0
430 -431 503 0
-430 -431 -503 0
433 434 -504 0
-433 434 504 0
433 -434 504 0
-433 -434 -504 0
435 436 -505 0
-435 436 505 0
435 -436 505 0
-435 -436 -505 0
437 438 -506 0
-437 438 506 0
437 -438 506 0
-437 -438 -506 0
439 440 -507 0
-439 440 507 0
439 -440 507 0
-439 -440 -507 0
441 442 -508 0
-441 442 508 0
441 -442 508 0
-441 -442 -508 0
443 444 -509 0
-443 444 509 0
443 -444 509 0
-443 -444 -509 0
445 446 -510 0
-445 446 510 0
445 -446 510 0
-445 -446 -510 0
447 448 -511 0
-447 448 511 0
447 -448 511 0
-447 -448 -511 0
449 450 -512 0
-449 450 512 0
449 -450 512 0
-449 -450 -512 0
451 452 -513 0
-451 452 513 0
451 -452 513 0
-451 -452 -513 0
453 454 -514 0
-453 454 514 0
453 -454 514 0
-453 -454 -514 0
455 456 -515 0
-455 456 515 0
455 -456 515 0
-455 -456 -515 0
457 458 -516 0
-457 458 516 0
457 -458 516 0
-457 -458 -516 0
459 460 -517 0
-459 460 517 0
459 -460 517 0
-459 -460 -517 0
461 462 -518 0
-461 462 518 0
461 -462 518 0
-461 -462 -518 0
463 464 -519 0
-463 464 519 0
463 -464 519 0
-463 -464 -519 0
465 466 -520 0
-465 466 520 0
465 -466 520 0
-465 -466 -520 0
467 468 -521 0
-467 468 521 0
467 -468 521 0
-467 -468 -521 0
469 470 -522 0
-469 470 522 0
469 -470 522 0
-469 -470 -522 0
471 472 -523 0
-471 472 523 0
471 -472 523 0
-471 -472 -523 0
473 474 -524 0
-473 474 524 0
473 -474 524 0
-473 -474 -524 0
475 476 -525 0
-475 476 525 0
475 -476 525 0
-475 -476 -525 0
477 478 -526 0
-477 478 526 0
477 -478 526 0
-477 -478 -526 0
479 480 -527 0
-479 480 527 0
479 -480 527 0
-479 -480 -527 0
481 482 -528 0
-481 482 528 0
481 -482 528 0
-481 -482 -528 0
483 484 -529 0
-483 484 529 0
483 -484 529 0
-483 -484 -529 0
485 486 -530 0
-485 486 530 0
485 -486 530 0
-485 -486 -530 0
487 488 -531 0
-487 488 531 0
487 -488 531 0
-487 -488 -531 0
489 490 -532 0
-489 490 532 0
489 -490 532 0
-489 -490 -532 0
491 492 -533 0
-491 492 533 0
491 -492 533 0
-491 -492 -533 0
493 494 -534 0
-493 494 534 0
493 -494 534 0
-493 -494 -534 0
495 496 -535 0
-495 496 535 0
495 -496 535 0
-495 -496 -535 0
497 498 -536 0
-497 498 536 0
497 -498 536 0
-497 -498 -536 0
499 500 -537 0
-499 500 537 0
499 -500 537 0
-499 -500 -537 0
501 502 -538 0
-501 502 538 0
501 -502 538 0
-501 -502 -538 0
503 432 -539 0
-503 432 539 0
503 -432 539 0
-503 -432 -539 0
504 505 -540 0
-504 505 540 0
504 -505 540 0
-504 -505 -540 0
506 507 -541 0
-506 507 541 0
506 -507 541 0
-506 -507 -541 0
508 509 -542 0
-508 509 542 0
508 -509 542 0
-508 -509 -542 0
510 511 -543 0
-510 511 543 0
510 -511 543 0
-510 -511 -543 0
512 513 -544 0
-512 513 544 0
512 -513 544 0
-512 -513 -544 0
514 515 -545 0
-514 515 545 0
514 -515 545 0
-514 -515 -545 0
516 517 -546 0
-516 517 546 0
516 -517 546 0
-516 -517 -546 0
518 519 -547 0
-518 519 547 0
518 -519 547 0
-518 -519 -547 0
520 521 -548 0
-520 521 548 0
520 -521 548 0
-520 -521 -548 0
522 523 -549 0
-522 523 549 0
522 -523 549 0
-522 -523 -549 0
524 525 -550 0
-524 525 550 0
524 -525 550 0
-524 -525 -550 0
526 527 -551 0
-526 527 551 0
526 -527 551 0
-526 -527 -551 0
528 529 -552 0
-528 529 552 0
528 -529 552 0
-528 -529 -552 0
530 531 -553 0
-530 531 553 0
530 -531 553 0
-530 -531 -553 0
532 533 -554 0
-532 533 554 0
532 -533 554 0
-532 -533 -554 0
534 535 -555 0
-534 535 555 0
534 -535 555 0
-534 -535 -555 0
536 537 -556 0
-536 537 556 0
536 -537 556 0
-536 -537 -556 0
538 539 -557 0
-538 539 557 0
538 -539 557 0
-538 -539 -557 0
540 541 -558 0
-540 541 558 0
540 -541 558 0
-540 -541 -558 0
542 543 -559 0
-542 543 559 0
542 -543 559 0
-542 -543 -559 0
544 545 -560 0
-544 545 560 0
544 -545 560 0
-544 -545 -560 0
546 547 -561 0
-546 547 561 0
546 -547 561 0
-546 -547 -561 0
548 549 -562 0
-548 549 562 0
548 -549 562 0
-548 -549 -562 0
550 551 -563 0
-550 551 563 0
550 -551 563 0
-550 -551 -563 0
552 553 -564 0
-552 553 564 0
552 -553 564 0
-552 -553 -564 0
554 555 -565 0
-554 555 565 0
554 -555 565 0
-554 -555 -565 0
556 557 -566 0
-556 557 566 0
556 -557 566 0
-556 -557 -566 0
558 559 -567 0
-558 559 567 0
558 -559 567 0
-558 -559 -567 0
560 561 -568 0
-560 561 568 0
560 -561 568 0
-560 -561 -568 0
562 563 -569 0
-562 563 569 0
562 -563 569 0
-562 -563 -569 0
564 565 -570 0
-564 565 570 0
564 -565 570 0
-564 -565 -570 0
567 568 -571 0
-567 568 571 0
567 -568 571 0
-567 -568 -571 0
569 570 -572 0
-569 570 572 0
569 -570 572 0
-569 -570 -572 0
571 572 -573 0
-571 572 573 0
571 -572 573 0
-571 -572 -573 0
573 566 -287 0
-573 566 287 0
573 -566 287 0
-573 -566 -287 0
